instances/knapsack/discrete_knapsack_uncertainty/knapsack_50_9.lp
\ Model knapsack_50_9
\ LP format - for model browsing. Use MPS format to capture full model detail.
\ Signature: 0xe2d4f45d0ac270ee
Minimize
  - 78 x[0] - 54 x[1] - 44 x[2] - 56 x[3] - 65 x[4] - 21 x[5] - 41 x[6]
   - 75 x[7] - 94 x[8] - 94 x[9] - 67 x[10] - 35 x[11] - 19 x[12]
   - 30 x[13] - 67 x[14] - 48 x[15] - 34 x[16] - 82 x[17] - 78 x[18]
   - 21 x[19] - 81 x[20] - 79 x[21] - 76 x[22] - 100 x[23] - 17 x[24]
   - 6 x[25] - 80 x[26] - 39 x[27] - 6 x[28] - 20 x[29] - 81 x[30]
   - 12 x[31] - 4 x[32] - 11 x[33] - 79 x[34] - 5 x[35] - 33 x[36]
   - 35 x[37] - 26 x[38] - 95 x[39] - 8 x[40] - 49 x[41] - 33 x[42]
   - 95 x[43] - 66 x[44] - 15 x[45] - 52 x[46] - 96 x[47] - 100 x[48]
   - 25 x[49]
Subject To
 primal_upper: 77 x[0] + 22 x[1] + 12 x[2] + 9 x[3] + 46 x[4] + 43 x[5]
   + 83 x[6] + 49 x[7] + 27 x[8] + 96 x[9] + 25 x[10] + 21 x[11] + 6 x[12]
   + 94 x[13] + 74 x[14] + 78 x[15] + 15 x[16] + 6 x[17] + 91 x[18]
   + 48 x[19] + 79 x[20] + 33 x[21] + 6 x[22] + 44 x[23] + 98 x[24]
   + 46 x[25] + 56 x[26] + 93 x[27] + 95 x[28] + 29 x[29] + 31 x[30]
   + 37 x[31] + 53 x[32] + 39 x[33] + 94 x[34] + 35 x[35] + 18 x[36]
   + 2 x[37] + 14 x[38] + 4 x[39] + 17 x[40] + 91 x[41] + 24 x[42]
   + 15 x[43] + 13 x[44] + 48 x[45] + 99 x[46] + 63 x[47] + 17 x[48]
   + 58 x[49] + 7.7 r[0] + 2.2 r[1] + 1.2 r[2] + 0.9 r[3] + 4.6 r[4]
   + 4.3 r[5] + 8.3 r[6] + 4.9 r[7] + 2.7 r[8] + 9.6 r[9] + 2.5 r[10]
   + 2.1 r[11] + 0.6 r[12] + 9.4 r[13] + 7.4 r[14] + 7.8 r[15] + 1.5 r[16]
   + 0.6 r[17] + 9.1 r[18] + 4.8 r[19] + 7.9 r[20] + 3.3 r[21] + 0.6 r[22]
   + 4.4 r[23] + 9.8 r[24] + 4.6 r[25] + 5.6 r[26] + 9.3 r[27] + 9.5 r[28]
   + 2.9 r[29] + 3.1 r[30] + 3.7 r[31] + 5.3 r[32] + 3.9 r[33] + 9.4 r[34]
   + 3.5 r[35] + 1.8 r[36] + 0.2 r[37] + 1.4 r[38] + 0.4 r[39] + 1.7 r[40]
   + 9.1 r[41] + 2.4 r[42] + 1.5 r[43] + 1.3 r[44] + 4.8 r[45] + 9.9 r[46]
   + 6.3 r[47] + 1.7 r[48] + 5.8 r[49] <= 216
 primal_lower: 4.693560071880801 x[0] + 3.702780444017558 x[1]
   + 2.826814985352369 x[2] + 3.616835354053338 x[3]
   + 4.014631884489331 x[4] + 3.635342125497021 x[5]
   + 4.808410983875447 x[6] + 0.8932499179478953 x[7]
   + 1.213478500361086 x[8] + 4.221436535427389 x[9]
   + 4.739208819322507 x[10] + 3.278234689007313 x[11]
   + 4.798910480765492 x[12] + 2.424050409016615 x[13]
   + 2.830909396968625 x[14] + 2.012806760176852 x[15]
   + 2.285412370622707 x[16] + 0.5983299588094342 x[17]
   + 3.491918514614599 x[18] + 3.341294001432304 x[19]
   + 2.059569642104895 x[20] + 1.559991442753522 x[21]
   + 2.453468601202468 x[22] + 3.929035929558335 x[23]
   + 0.5990566303047248 x[24] + 3.074894031505747 x[25]
   + 2.789450509157445 x[26] + 3.430741472625341 x[27]
   + 5.126908607143932 x[28] + 0.8898136707190851 x[29]
   + 2.906433165554777 x[30] + 3.371652364215264 x[31]
   + 2.692299027519414 x[32] + 3.007091472396922 x[33]
   + 1.568818891987844 x[34] + 0.0771665587597822 x[35]
   + 1.598389981769785 x[36] + 4.283931027305471 x[37]
   + 1.452341172335015 x[38] + 1.874224343274728 x[39]
   + 4.479970460991504 x[40] + 5.055171924004894 x[41]
   + 2.616505558349977 x[42] + 3.538462874132392 x[43]
   + 2.691604344969029 x[44] + 3.652698269129721 x[45]
   + 0.7743430776180199 x[46] + 3.454644757638238 x[47]
   + 1.728114905407279 x[48] + 0.2451098650226308 x[49] + 89 u[0] + 78 u[1]
   + 64 u[2] + 25 u[3] + 90 u[4] + 71 u[5] + 95 u[6] + 53 u[7] + 47 u[8]
   + 80 u[9] + 21 u[10] + 29 u[11] + 10 u[12] + 22 u[13] + 22 u[14]
   + 10 u[15] + 99 u[16] + 66 u[17] + 47 u[18] + 28 u[19] + 83 u[20]
   + 69 u[21] + 42 u[22] + 88 u[23] + 54 u[24] + 90 u[25] + 64 u[26]
   + u[27] + 31 u[28] + 97 u[29] + 31 u[30] + u[31] + 57 u[32] + 39 u[33]
   + 70 u[34] + 7 u[35] + 78 u[36] + 62 u[37] + 46 u[38] + 72 u[39]
   + 65 u[40] + 91 u[41] + 56 u[42] + 55 u[43] + 37 u[44] + 96 u[45]
   + 31 u[46] + 83 u[47] + 21 u[48] + 78 u[49] <= 9369
 mccormick1[0]: - u[0] + r[0] <= 0
 mccormick1[1]: - u[1] + r[1] <= 0
 mccormick1[2]: - u[2] + r[2] <= 0
 mccormick1[3]: - u[3] + r[3] <= 0
 mccormick1[4]: - u[4] + r[4] <= 0
 mccormick1[5]: - u[5] + r[5] <= 0
 mccormick1[6]: - u[6] + r[6] <= 0
 mccormick1[7]: - u[7] + r[7] <= 0
 mccormick1[8]: - u[8] + r[8] <= 0
 mccormick1[9]: - u[9] + r[9] <= 0
 mccormick1[10]: - u[10] + r[10] <= 0
 mccormick1[11]: - u[11] + r[11] <= 0
 mccormick1[12]: - u[12] + r[12] <= 0
 mccormick1[13]: - u[13] + r[13] <= 0
 mccormick1[14]: - u[14] + r[14] <= 0
 mccormick1[15]: - u[15] + r[15] <= 0
 mccormick1[16]: - u[16] + r[16] <= 0
 mccormick1[17]: - u[17] + r[17] <= 0
 mccormick1[18]: - u[18] + r[18] <= 0
 mccormick1[19]: - u[19] + r[19] <= 0
 mccormick1[20]: - u[20] + r[20] <= 0
 mccormick1[21]: - u[21] + r[21] <= 0
 mccormick1[22]: - u[22] + r[22] <= 0
 mccormick1[23]: - u[23] + r[23] <= 0
 mccormick1[24]: - u[24] + r[24] <= 0
 mccormick1[25]: - u[25] + r[25] <= 0
 mccormick1[26]: - u[26] + r[26] <= 0
 mccormick1[27]: - u[27] + r[27] <= 0
 mccormick1[28]: - u[28] + r[28] <= 0
 mccormick1[29]: - u[29] + r[29] <= 0
 mccormick1[30]: - u[30] + r[30] <= 0
 mccormick1[31]: - u[31] + r[31] <= 0
 mccormick1[32]: - u[32] + r[32] <= 0
 mccormick1[33]: - u[33] + r[33] <= 0
 mccormick1[34]: - u[34] + r[34] <= 0
 mccormick1[35]: - u[35] + r[35] <= 0
 mccormick1[36]: - u[36] + r[36] <= 0
 mccormick1[37]: - u[37] + r[37] <= 0
 mccormick1[38]: - u[38] + r[38] <= 0
 mccormick1[39]: - u[39] + r[39] <= 0
 mccormick1[40]: - u[40] + r[40] <= 0
 mccormick1[41]: - u[41] + r[41] <= 0
 mccormick1[42]: - u[42] + r[42] <= 0
 mccormick1[43]: - u[43] + r[43] <= 0
 mccormick1[44]: - u[44] + r[44] <= 0
 mccormick1[45]: - u[45] + r[45] <= 0
 mccormick1[46]: - u[46] + r[46] <= 0
 mccormick1[47]: - u[47] + r[47] <= 0
 mccormick1[48]: - u[48] + r[48] <= 0
 mccormick1[49]: - u[49] + r[49] <= 0
 mccormick2[0]: - x[0] + r[0] <= 0
 mccormick2[1]: - x[1] + r[1] <= 0
 mccormick2[2]: - x[2] + r[2] <= 0
 mccormick2[3]: - x[3] + r[3] <= 0
 mccormick2[4]: - x[4] + r[4] <= 0
 mccormick2[5]: - x[5] + r[5] <= 0
 mccormick2[6]: - x[6] + r[6] <= 0
 mccormick2[7]: - x[7] + r[7] <= 0
 mccormick2[8]: - x[8] + r[8] <= 0
 mccormick2[9]: - x[9] + r[9] <= 0
 mccormick2[10]: - x[10] + r[10] <= 0
 mccormick2[11]: - x[11] + r[11] <= 0
 mccormick2[12]: - x[12] + r[12] <= 0
 mccormick2[13]: - x[13] + r[13] <= 0
 mccormick2[14]: - x[14] + r[14] <= 0
 mccormick2[15]: - x[15] + r[15] <= 0
 mccormick2[16]: - x[16] + r[16] <= 0
 mccormick2[17]: - x[17] + r[17] <= 0
 mccormick2[18]: - x[18] + r[18] <= 0
 mccormick2[19]: - x[19] + r[19] <= 0
 mccormick2[20]: - x[20] + r[20] <= 0
 mccormick2[21]: - x[21] + r[21] <= 0
 mccormick2[22]: - x[22] + r[22] <= 0
 mccormick2[23]: - x[23] + r[23] <= 0
 mccormick2[24]: - x[24] + r[24] <= 0
 mccormick2[25]: - x[25] + r[25] <= 0
 mccormick2[26]: - x[26] + r[26] <= 0
 mccormick2[27]: - x[27] + r[27] <= 0
 mccormick2[28]: - x[28] + r[28] <= 0
 mccormick2[29]: - x[29] + r[29] <= 0
 mccormick2[30]: - x[30] + r[30] <= 0
 mccormick2[31]: - x[31] + r[31] <= 0
 mccormick2[32]: - x[32] + r[32] <= 0
 mccormick2[33]: - x[33] + r[33] <= 0
 mccormick2[34]: - x[34] + r[34] <= 0
 mccormick2[35]: - x[35] + r[35] <= 0
 mccormick2[36]: - x[36] + r[36] <= 0
 mccormick2[37]: - x[37] + r[37] <= 0
 mccormick2[38]: - x[38] + r[38] <= 0
 mccormick2[39]: - x[39] + r[39] <= 0
 mccormick2[40]: - x[40] + r[40] <= 0
 mccormick2[41]: - x[41] + r[41] <= 0
 mccormick2[42]: - x[42] + r[42] <= 0
 mccormick2[43]: - x[43] + r[43] <= 0
 mccormick2[44]: - x[44] + r[44] <= 0
 mccormick2[45]: - x[45] + r[45] <= 0
 mccormick2[46]: - x[46] + r[46] <= 0
 mccormick2[47]: - x[47] + r[47] <= 0
 mccormick2[48]: - x[48] + r[48] <= 0
 mccormick2[49]: - x[49] + r[49] <= 0
 mccormick3[0]: x[0] + u[0] - r[0] <= 1
 mccormick3[1]: x[1] + u[1] - r[1] <= 1
 mccormick3[2]: x[2] + u[2] - r[2] <= 1
 mccormick3[3]: x[3] + u[3] - r[3] <= 1
 mccormick3[4]: x[4] + u[4] - r[4] <= 1
 mccormick3[5]: x[5] + u[5] - r[5] <= 1
 mccormick3[6]: x[6] + u[6] - r[6] <= 1
 mccormick3[7]: x[7] + u[7] - r[7] <= 1
 mccormick3[8]: x[8] + u[8] - r[8] <= 1
 mccormick3[9]: x[9] + u[9] - r[9] <= 1
 mccormick3[10]: x[10] + u[10] - r[10] <= 1
 mccormick3[11]: x[11] + u[11] - r[11] <= 1
 mccormick3[12]: x[12] + u[12] - r[12] <= 1
 mccormick3[13]: x[13] + u[13] - r[13] <= 1
 mccormick3[14]: x[14] + u[14] - r[14] <= 1
 mccormick3[15]: x[15] + u[15] - r[15] <= 1
 mccormick3[16]: x[16] + u[16] - r[16] <= 1
 mccormick3[17]: x[17] + u[17] - r[17] <= 1
 mccormick3[18]: x[18] + u[18] - r[18] <= 1
 mccormick3[19]: x[19] + u[19] - r[19] <= 1
 mccormick3[20]: x[20] + u[20] - r[20] <= 1
 mccormick3[21]: x[21] + u[21] - r[21] <= 1
 mccormick3[22]: x[22] + u[22] - r[22] <= 1
 mccormick3[23]: x[23] + u[23] - r[23] <= 1
 mccormick3[24]: x[24] + u[24] - r[24] <= 1
 mccormick3[25]: x[25] + u[25] - r[25] <= 1
 mccormick3[26]: x[26] + u[26] - r[26] <= 1
 mccormick3[27]: x[27] + u[27] - r[27] <= 1
 mccormick3[28]: x[28] + u[28] - r[28] <= 1
 mccormick3[29]: x[29] + u[29] - r[29] <= 1
 mccormick3[30]: x[30] + u[30] - r[30] <= 1
 mccormick3[31]: x[31] + u[31] - r[31] <= 1
 mccormick3[32]: x[32] + u[32] - r[32] <= 1
 mccormick3[33]: x[33] + u[33] - r[33] <= 1
 mccormick3[34]: x[34] + u[34] - r[34] <= 1
 mccormick3[35]: x[35] + u[35] - r[35] <= 1
 mccormick3[36]: x[36] + u[36] - r[36] <= 1
 mccormick3[37]: x[37] + u[37] - r[37] <= 1
 mccormick3[38]: x[38] + u[38] - r[38] <= 1
 mccormick3[39]: x[39] + u[39] - r[39] <= 1
 mccormick3[40]: x[40] + u[40] - r[40] <= 1
 mccormick3[41]: x[41] + u[41] - r[41] <= 1
 mccormick3[42]: x[42] + u[42] - r[42] <= 1
 mccormick3[43]: x[43] + u[43] - r[43] <= 1
 mccormick3[44]: x[44] + u[44] - r[44] <= 1
 mccormick3[45]: x[45] + u[45] - r[45] <= 1
 mccormick3[46]: x[46] + u[46] - r[46] <= 1
 mccormick3[47]: x[47] + u[47] - r[47] <= 1
 mccormick3[48]: x[48] + u[48] - r[48] <= 1
 mccormick3[49]: x[49] + u[49] - r[49] <= 1
Bounds
Binaries
 x[0] x[1] x[2] x[3] x[4] x[5] x[6] x[7] x[8] x[9] x[10] x[11] x[12] x[13]
 x[14] x[15] x[16] x[17] x[18] x[19] x[20] x[21] x[22] x[23] x[24] x[25]
 x[26] x[27] x[28] x[29] x[30] x[31] x[32] x[33] x[34] x[35] x[36] x[37]
 x[38] x[39] x[40] x[41] x[42] x[43] x[44] x[45] x[46] x[47] x[48] x[49]
 u[0] u[1] u[2] u[3] u[4] u[5] u[6] u[7] u[8] u[9] u[10] u[11] u[12] u[13]
 u[14] u[15] u[16] u[17] u[18] u[19] u[20] u[21] u[22] u[23] u[24] u[25]
 u[26] u[27] u[28] u[29] u[30] u[31] u[32] u[33] u[34] u[35] u[36] u[37]
 u[38] u[39] u[40] u[41] u[42] u[43] u[44] u[45] u[46] u[47] u[48] u[49]
 r[0] r[1] r[2] r[3] r[4] r[5] r[6] r[7] r[8] r[9] r[10] r[11] r[12] r[13]
 r[14] r[15] r[16] r[17] r[18] r[19] r[20] r[21] r[22] r[23] r[24] r[25]
 r[26] r[27] r[28] r[29] r[30] r[31] r[32] r[33] r[34] r[35] r[36] r[37]
 r[38] r[39] r[40] r[41] r[42] r[43] r[44] r[45] r[46] r[47] r[48] r[49]
End
