instances/knapsack/discrete_knapsack_uncertainty/knapsack_50_9.kp
65017
50
216

77 7.7 78
22 2.2 54
12 1.2 44
9 0.9 56
46 4.6 65
43 4.3 21
83 8.3 41
49 4.9 75
27 2.7 94
96 9.6 94
25 2.5 67
21 2.1 35
6 0.6 19
94 9.4 30
74 7.4 67
78 7.8 48
15 1.5 34
6 0.6 82
91 9.1 78
48 4.8 21
79 7.9 81
33 3.3 79
6 0.6 76
44 4.4 100
98 9.8 17
46 4.6 6
56 5.6 80
93 9.3 39
95 9.5 6
29 2.9 20
31 3.1 81
37 3.7 12
53 5.3 4
39 3.9 11
94 9.4 79
35 3.5 5
18 1.8 33
2 0.2 35
14 1.4 26
4 0.4 95
17 1.7 8
91 9.1 49
24 2.4 33
15 1.5 95
13 1.3 66
48 4.8 15
99 9.9 52
63 6.3 96
17 1.7 100
58 5.8 25

9369
261

[4.6935600718808015 3.7027804440175585 2.8268149853523687 3.6168353540533382 4.014631884489331 3.635342125497021 4.808410983875447 0.8932499179478953 1.2134785003610857 4.221436535427389 4.739208819322507 3.278234689007313 4.798910480765492 2.4240504090166146 2.830909396968625 2.0128067601768516 2.285412370622707 0.5983299588094342 3.4919185146145995 3.341294001432304 2.0595696421048952 1.5599914427535218 2.453468601202468 3.929035929558335 0.5990566303047248 3.074894031505747 2.7894505091574446 3.4307414726253413 5.126908607143932 0.8898136707190851 2.906433165554777 3.3716523642152643 2.6922990275194136 3.007091472396922 1.5688188919878436 0.07716655875978218 1.598389981769785 4.283931027305471 1.4523411723350153 1.8742243432747276 4.479970460991504 5.055171924004894 2.6165055583499774 3.538462874132392 2.6916043449690292 3.652698269129721 0.7743430776180199 3.4546447576382384 1.7281149054072786 0.2451098650226308]

[89 78 64 25 90 71 95 53 47 80 21 29 10 22 22 10 99 66 47 28 83 69 42 88 54 90 64 1 31 97 31 1 57 39 70 7 78 62 46 72 65 91 56 55 37 96 31 83 21 78]
